Autosave\of\hfo2-o-fe                   
   1.00000000000000     
     5.0993155677255730    0.0000000000000000    0.0000000000000000
     0.0000000000000000    5.1281015895346158    0.0000000000000000
     0.0000000000000000    0.0000000000000000    5.3227449534854081
   Zr   O 
     4     8
Direct
  0.9980427369364980  0.9979422256491253  0.9970654796086135
  0.9980427369364980  0.4979422256491253  0.4358845103913839
  0.4662572700635003  0.9979422256491253  0.4970654796086134
  0.4662572700635003  0.4979422256491253  0.9358845403913864
  0.6665556996704273  0.6426070593932984  0.6019439990949821
  0.7977442773295759  0.6426070593932984  0.1019439840949847
  0.6665556996704273  0.1426070743932960  0.8309960079050170
  0.7977442773295759  0.1426070743932960  0.3310060209050176
  0.1972277981810986  0.7462207249575827  0.7398458914770334
  0.2670721938189023  0.7462107109575855  0.2398459054770348
  0.1972277981810986  0.2462106959575880  0.6930941155229657
  0.2670721938189023  0.2462106959575880  0.1930940855229630
